# Solution for model HELLO
# Objective value = 3835
XXXXXXX0 0
XXXXXXX1 0
XXXXXXX2 0
XXXXXXX3 0
XXXXXXX4 0
XXXXXXX5 0
XXXXXXX6 0
XXXXXXX7 0
XXXXXXX8 0
XXXXXXX9 0
XXXXXX10 0
XXXXXX11 0
XXXXXX12 0
XXXXXX13 0
XXXXXX14 0
XXXXXX15 0
XXXXXX16 0
XXXXXX17 0
XXXXXX18 0
XXXXXX19 0
XXXXXX20 0
XXXXXX21 0
XXXXXX22 0
XXXXXX23 0
XXXXXX24 0
XXXXXX25 0
XXXXXX26 0
XXXXXX27 0
XXXXXX28 0
XXXXXX29 0
XXXXXX30 0
XXXXXX31 0
XXXXXX32 0
XXXXXX33 0
XXXXXX34 0
XXXXXX35 0
XXXXXX36 0
XXXXXX37 0
XXXXXX38 0
XXXXXX39 0
XXXXXX40 0
XXXXXX41 0
XXXXXX42 0
XXXXXX43 0
XXXXXX44 0
XXXXXX45 0
XXXXXX46 0
XXXXXX47 0
XXXXXX48 0
XXXXXX49 0
XXXXXX50 0
XXXXXX51 0
XXXXXX52 0
XXXXXX53 0
XXXXXX54 0
XXXXXX55 0
XXXXXX56 0
XXXXXX57 0
XXXXXX58 0
XXXXXX59 0
XXXXXX60 0
XXXXXX61 0
XXXXXX62 0
XXXXXX63 0
XXXXXX64 0
XXXXXX65 0
XXXXXX66 0
XXXXXX67 0
XXXXXX68 0
XXXXXX69 0
XXXXXX70 0
XXXXXX71 0
XXXXXX72 0
XXXXXX73 0
XXXXXX74 0
XXXXXX75 0
XXXXXX76 0
XXXXXX77 0
XXXXXX78 0
XXXXXX79 0
XXXXXX80 0
XXXXXX81 1
XXXXXX82 1
XXXXXX83 1
XXXXXX84 1
XXXXXX85 1
XXXXXX86 1
XXXXXX87 1
XXXXXX88 1
XXXXXX89 1
XXXXXX90 1
XXXXXX91 1
XXXXXX92 1
XXXXXX93 1
XXXXXX94 1
XXXXXX95 1
XXXXXX96 1
XXXXXX97 1
XXXXXX98 1
XXXXXX99 1
XXXXX100 1
XXXXX101 1
XXXXX102 1
XXXXX103 1
XXXXX104 1
XXXXX105 1
XXXXX106 1
XXXXX107 1
XXXXX108 1
XXXXX109 1
XXXXX110 1
XXXXX111 1
XXXXX112 1
XXXXX113 1
XXXXX114 1
XXXXX115 1
XXXXX116 1
XXXXX117 1
XXXXX118 1
XXXXX119 1
XXXXX120 1
XXXXX121 1
XXXXX122 1
XXXXX123 1
XXXXX124 1
XXXXX125 1
XXXXX126 1
XXXXX127 1
XXXXX128 1
XXXXX129 1
XXXXX130 1
XXXXX131 1
XXXXX132 1
XXXXX133 1
XXXXX134 1
XXXXX135 1
XXXXX136 1
XXXXX137 1
XXXXX138 1
XXXXX139 1
XXXXX140 1
XXXXX141 1
XXXXX142 1
XXXXX143 1
XXXXX144 1
XXXXX145 1
XXXXX146 1
XXXXX147 1
XXXXX148 1
XXXXX149 1
XXXXX150 1
XXXXX151 1
XXXXX152 1
XXXXX153 1
XXXXX154 1
XXXXX155 1
XXXXX156 1
XXXXX157 1
XXXXX158 1
XXXXX159 1
XXXXX160 1
XXXXX161 1
XXXXX162 1
XXXXX163 1
XXXXX164 1
XXXXX165 1
XXXXX166 0
XXXXX167 0
XXXXX168 0
XXXXX169 0
XXXXX170 0
XXXXX171 0
XXXXX172 0
XXXXX173 0
XXXXX174 0
XXXXX175 0
XXXXX176 0
XXXXX177 0
XXXXX178 0
XXXXX179 0
XXXXX180 0
XXXXX181 0
XXXXX182 0
XXXXX183 0
XXXXX184 0
XXXXX185 0
XXXXX186 0
XXXXX187 0
XXXXX188 0
XXXXX189 0
XXXXX190 0
XXXXX191 0
XXXXX192 0
XXXXX193 0
XXXXX194 0
XXXXX195 0
XXXXX196 0
XXXXX197 0
XXXXX198 0
XXXXX199 0
XXXXX200 0
XXXXX201 0
XXXXX202 0
XXXXX203 0
XXXXX204 0
XXXXX205 0
XXXXX206 0
XXXXX207 0
XXXXX208 0
XXXXX209 0
XXXXX210 0
XXXXX211 0
XXXXX212 0
XXXXX213 0
XXXXX214 0
XXXXX215 0
XXXXX216 0
XXXXX217 0
XXXXX218 0
XXXXX219 0
XXXXX220 0
XXXXX221 0
XXXXX222 0
XXXXX223 0
XXXXX224 0
XXXXX225 0
XXXXX226 0
XXXXX227 0
XXXXX228 0
XXXXX229 0
XXXXX230 0
XXXXX231 0
XXXXX232 0
XXXXX233 0
XXXXX234 0
XXXXX235 0
XXXXX236 0
XXXXX237 0
XXXXX238 0
XXXXX239 0
XXXXX240 0
XXXXX241 0
XXXXX242 0
XXXXX243 0
XXXXX244 0
XXXXX245 0
XXXXX246 0
XXXXX247 0
XXXXX248 0
XXXXX249 0
XXXXX250 0
XXXXX251 0
XXXXX252 0
XXXXX253 0
XXXXX254 0
XXXXX255 0
XXXXX256 0
XXXXX257 0
XXXXX258 0
XXXXX259 0
XXXXX260 0
XXXXX261 0
XXXXX262 0
XXXXX263 0
XXXXX264 0
XXXXX265 0
XXXXX266 0
XXXXX267 0
XXXXX268 0
XXXXX269 0
XXXXX270 0
XXXXX271 0
XXXXX272 0
XXXXX273 0
XXXXX274 0
XXXXX275 0
XXXXX276 0
XXXXX277 0
XXXXX278 0
XXXXX279 0
XXXXX280 0
XXXXX281 0
XXXXX282 0
XXXXX283 0
XXXXX284 0
XXXXX285 0
XXXXX286 0
XXXXX287 0
XXXXX288 0
XXXXX289 0
XXXXX290 0
XXXXX291 0
XXXXX292 0
XXXXX293 0
XXXXX294 0
XXXXX295 0
XXXXX296 0
XXXXX297 0
XXXXX298 0
XXXXX299 0
XXXXX300 0
XXXXX301 0
XXXXX302 0
XXXXX303 0
XXXXX304 0
XXXXX305 0
XXXXX306 0
XXXXX307 0
XXXXX308 0
XXXXX309 0
XXXXX310 0
XXXXX311 0
XXXXX312 0
XXXXX313 0
XXXXX314 0
XXXXX315 0
XXXXX316 0
XXXXX317 0
XXXXX318 0
XXXXX319 0
XXXXX320 0
XXXXX321 0
XXXXX322 0
XXXXX323 0
XXXXX324 0
XXXXX325 0
XXXXX326 0
XXXXX327 0
XXXXX328 0
XXXXX329 0
XXXXX330 0
XXXXX331 0
XXXXX332 0
XXXXX333 0
XXXXX334 0
XXXXX335 0
XXXXX336 0
XXXXX337 0
XXXXX338 0
XXXXX339 0
XXXXX340 0
XXXXX341 0
XXXXX342 0
XXXXX343 0
XXXXX344 0
XXXXX345 0
XXXXX346 0
XXXXX347 0
XXXXX348 0
XXXXX349 0
XXXXX350 0
XXXXX351 0
XXXXX352 0
XXXXX353 0
XXXXX354 0
XXXXX355 0
XXXXX356 0
XXXXX357 0
XXXXX358 0
XXXXX359 0
XXXXX360 0
XXXXX361 0
XXXXX362 0
XXXXX363 0
XXXXX364 0
XXXXX365 0
XXXXX366 0
XXXXX367 0
XXXXX368 0
XXXXX369 0
XXXXX370 0
XXXXX371 0
XXXXX372 0
XXXXX373 0
XXXXX374 0
XXXXX375 0
XXXXX376 0
XXXXX377 0
XXXXX378 0
XXXXX379 0
XXXXX380 0
XXXXX381 0
XXXXX382 0
XXXXX383 0
XXXXX384 0
XXXXX385 0
XXXXX386 0
XXXXX387 0
XXXXX388 0
XXXXX389 0
XXXXX390 0
XXXXX391 0
XXXXX392 0
XXXXX393 0
XXXXX394 0
XXXXX395 0
XXXXX396 0
XXXXX397 0
XXXXX398 0
XXXXX399 0
XXXXX400 0
XXXXX401 0
XXXXX402 0
XXXXX403 0
XXXXX404 0
XXXXX405 0
XXXXX406 0
XXXXX407 0
XXXXX408 0
XXXXX409 0
XXXXX410 0
XXXXX411 0
XXXXX412 0
XXXXX413 0
XXXXX414 0
XXXXX415 0
XXXXX416 0
XXXXX417 0
XXXXX418 0
XXXXX419 0
XXXXX420 0
XXXXX421 0
XXXXX422 0
XXXXX423 0
XXXXX424 0
XXXXX425 0
XXXXX426 0
XXXXX427 0
XXXXX428 0
XXXXX429 0
XXXXX430 0
XXXXX431 0
XXXXX432 0
XXXXX433 0
XXXXX434 0
XXXXX435 0
XXXXX436 0
XXXXX437 0
XXXXX438 0
XXXXX439 0
XXXXX440 0
XXXXX441 0
XXXXX442 0
XXXXX443 0
XXXXX444 0
XXXXX445 0
XXXXX446 0
XXXXX447 0
XXXXX448 0
XXXXX449 0
XXXXX450 0
XXXXX451 0
XXXXX452 0
XXXXX453 0
XXXXX454 0
XXXXX455 0
XXXXX456 0
XXXXX457 0
XXXXX458 0
XXXXX459 0
XXXXX460 0
XXXXX461 0
XXXXX462 0
XXXXX463 0
XXXXX464 0
XXXXX465 0
XXXXX466 0
XXXXX467 0
XXXXX468 0
XXXXX469 0
XXXXX470 0
XXXXX471 0
XXXXX472 0
XXXXX473 0
XXXXX474 0
XXXXX475 0
XXXXX476 0
XXXXX477 0
XXXXX478 0
XXXXX479 0
XXXXX480 0
XXXXX481 0
XXXXX482 0
XXXXX483 0
XXXXX484 0
XXXXX485 0
XXXXX486 0
XXXXX487 0
XXXXX488 0
XXXXX489 0
XXXXX490 0
XXXXX491 0
XXXXX492 0
XXXXX493 0
XXXXX494 0
XXXXX495 0
XXXXX496 0
XXXXX497 0
XXXXX498 0
XXXXX499 0
YYYYYYY0 0
YYYYYYY1 1
YYYYYYY2 0
YYYYYYY3 0
YYYYYYY4 0
